c Lingeling SAT Solver
c 
c Version bal 2293bef0a4bd680210f6f5a453efa8b0a26f53ee
c 
c Copyright (C) 2010-2014 Armin Biere JKU Linz Austria.
c All rights reserved.
c 
c released Mon Nov  9 11:04:59 CET 2015
c compiled Thu May 19 00:03:53 CST 2016
c 
c gcc (Ubuntu 4.8.4-2ubuntu1~14.04) 4.8.4
c -Wall -O3 -DNLGLOG -DNDEBUG -DNCHKSOL -DNLGLDRUPLIG -DNLGLYALSAT
c -DNLGLFILES -DNLGLDEMA
c Linux yangds-Vostro-5560 3.19.0-25-generic x86_64
c 
c reading input file ../sample.cnf
c no embedded options
c found 'p cnf 255 823' header
c read 255 variables, 823 clauses, 2469 literals in 0.00 seconds
c 
c  seconds         irredundant            redundant clauses   glue   iterations"      MB    stability
c          variables clauses conflicts  large ternary binary     jlevel       jlevel'  agility     tlevel
c 
c  S    0.0     255      815         0       0      0     0    0     0      0     0    0   0     0      0
c 
c  seconds         irredundant            redundant clauses   glue   iterations"      MB    stability
c          variables clauses conflicts  large ternary binary     jlevel       jlevel'  agility     tlevel
c 
s SATISFIABLE
v 1 -2 -3 4 5 6 -7 8 -9 -10 -11 -12 -13 14 -15 16 17 18 -19 20 -21 22 -23 -24 25
v 26 27 -28 29 30 31 -32 33 34 -35 36 -37 38 39 -40 -41 -42 43 -44 -45 46 47 48
v 49 -50 -51 52 -53 54 55 56 57 -58 59 -60 -61 -62 63 64 -65 66 -67 68 69 70 -71
v -72 73 74 -75 76 77 -78 79 -80 -81 -82 83 84 85 86 -87 88 -89 -90 -91 92 -93
v 94 -95 -96 97 -98 99 100 -101 102 103 104 105 -106 -107 108 -109 110 111 112
v 113 -114 115 116 117 118 -119 120 -121 -122 -123 -124 -125 -126 127 -128 129
v -130 131 132 -133 134 -135 136 -137 -138 139 -140 -141 142 -143 144 -145 146
v -147 148 -149 150 151 152 153 154 -155 156 -157 -158 159 -160 161 162 -163
v -164 165 166 167 168 169 -170 -171 -172 -173 -174 175 -176 -177 178 -179 180
v -181 -182 -183 184 -185 -186 187 -188 189 -190 -191 192 -193 -194 195 196 197
v 198 199 -200 -201 -202 203 204 205 -206 -207 208 209 210 211 -212 -213 -214
v 215 -216 217 -218 -219 220 -221 222 223 -224 -225 226 -227 -228 229 -230 231
v 232 -233 -234 -235 236 237 -238 239 240 241 -242 243 -244 245 246 247 248 -249
v -250 251 -252 253 254 255 0
c
c    0.012 100% simplifying
c    0.000   0% search
c ==================================
c    0.012 100% all
c 
c             5 conflicts,         416.7 confs/sec
c             1 ternaries,           5.0 confs/ternary
c             0 binaries,            0.0 confs/binary
c             0 iterations,          0.0 confs/iteration
c 
c             0 reductions,          0.0 redus/sec,      0.0 confs/reduction
c             0 restarts,            0.0 rests/sec,      0.0 confs/restart
c            94 decisions,        7833.3 decis/sec,     18.8 decis/conflict
c           430 propagations,    35833.3 props/sec,      4.6 props/decision
c 
c 0.0 seconds, 0.1 MB
è„šæœ¬å¯åŠ¨äº 2016å¹´05æœˆ28æ—¥ æ˜ŸæœŸå…­ 08æ—¶30åˆ†57ç§’
]0;yangds@yangds-Vostro-5560: ~/ä¸‹è½½/SATyangds@yangds-Vostro-5560:~/ä¸‹è½½/SAT$ exit
exit

è„šæœ¬å®Œæˆï¼Œäº 2016å¹´05æœˆ28æ—¥ æ˜ŸæœŸå…­ 08æ—¶31åˆ†42ç§’
è„šæœ¬å¯åŠ¨äº 2016å¹´05æœˆ28æ—¥ æ˜ŸæœŸå…­ 08æ—¶31åˆ†42ç§’
]0;yangds@yangds-Vostro-5560: ~/ä¸‹è½½/SATyangds@yangds-Vostro-5560:~/ä¸‹è½½/SAT$ ^C
]0;yangds@yangds-Vostro-5560: ~/ä¸‹è½½/SATyangds@yangds-Vostro-5560:~/ä¸‹è½½/SAT$ ^C
]0;yangds@yangds-Vostro-5560: ~/ä¸‹è½½/SATyangds@yangds-Vostro-5560:~/ä¸‹è½½/SAT$ exit
exit

è„šæœ¬å®Œæˆï¼Œäº 2016å¹´05æœˆ28æ—¥ æ˜ŸæœŸå…­ 08æ—¶32åˆ†26ç§’
è„šæœ¬å¯åŠ¨äº 2016å¹´05æœˆ28æ—¥ æ˜ŸæœŸå…­ 08æ—¶34åˆ†04ç§’
]0;yangds@yangds-Vostro-5560: ~/ä¸‹è½½/SATyangds@yangds-Vostro-5560:~/ä¸‹è½½/SAT$ exit
exit

è„šæœ¬å®Œæˆï¼Œäº 2016å¹´05æœˆ28æ—¥ æ˜ŸæœŸå…­ 08æ—¶34åˆ†11ç§’
è„šæœ¬å¯åŠ¨äº 2016å¹´05æœˆ28æ—¥ æ˜ŸæœŸå…­ 08æ—¶34åˆ†11ç§’
]0;yangds@yangds-Vostro-5560: ~/ä¸‹è½½/SATyangds@yangds-Vostro-5560:~/ä¸‹è½½/SAT$ exit
exit

è„šæœ¬å®Œæˆï¼Œäº 2016å¹´05æœˆ28æ—¥ æ˜ŸæœŸå…­ 08æ—¶34åˆ†16ç§’
è„šæœ¬å¯åŠ¨äº 2016å¹´05æœˆ28æ—¥ æ˜ŸæœŸå…­ 08æ—¶34åˆ†16ç§’
]0;yangds@yangds-Vostro-5560: ~/ä¸‹è½½/SATyangds@yangds-Vostro-5560:~/ä¸‹è½½/SAT$ exit
exit

è„šæœ¬å®Œæˆï¼Œäº 2016å¹´05æœˆ28æ—¥ æ˜ŸæœŸå…­ 08æ—¶34åˆ†18ç§’
